# Solution for model r5_t27_m0_9
# Finished Task: 23 / 27
# Makespan: 822.0, Total Distance: 1312.0, Total Time: 0.3309
# R O S F
0 0 12 0.0 0.0
1 1 13 0.0 0.0
2 2 21 0.0 0.0
3 3 16 0.0 0.0
4 4 26 0.0 0.0
5 -1 -1 -1.0 -1.0
6 -1 -1 -1.0 -1.0
7 -1 -1 -1.0 -1.0
8 2 14 646.0 666.0
9 4 20 630.0 656.0
10 -1 -1 -1.0 -1.0
11 1 18 670.0 699.0
12 0 25 175.0 202.0
13 1 31 274.0 306.0
14 2 -1 729.0 750.0
15 4 9 566.0 593.0
16 3 22 562.0 598.0
17 0 -1 715.0 746.0
18 1 -1 735.0 761.0
19 2 24 531.0 562.0
20 4 27 683.0 714.0
21 2 19 265.0 291.0
22 3 23 672.0 692.0
23 3 -1 722.0 747.0
24 2 8 595.0 626.0
25 0 30 548.0 578.0
26 4 28 318.0 345.0
27 4 -1 795.0 822.0
28 4 29 369.0 401.0
29 4 15 507.0 527.0
30 0 17 649.0 686.0
31 1 11 611.0 646.0
